c Scranfilize CNF Scrambler
c Version 003 9a38402ab0067cde5c53964615ae940a00f23767
c random seed '2019'
c literal flip probability 0.01 ('-f 0.01')
c relative variable move window 0.01 ('-v 0.01')
c relative clause move window 0.01 ('-c 0.01')
p cnf 180 432
-1 -2 0
-1 -4 0
-1 -3 0
-1 -5 0
-2 -3 0
-2 -4 0
-3 -4 0
-2 -5 0
-3 -5 0
-4 -5 0
-6 -9 0
-6 -7 0
-6 -8 0
-7 -8 0
-6 -10 0
-7 -10 0
-7 -9 0
-8 -9 0
-9 -10 0
-8 -10 0
-11 -12 0
-11 -14 0
-11 -15 0
-11 -13 0
-12 -15 0
-12 -13 0
-12 -14 0
-13 -15 0
-13 -14 0
-14 -15 0
-16 -17 0
-16 -19 0
-17 -18 0
-16 -18 0
-16 -20 0
-17 -20 0
-17 -19 0
-18 -20 0
-21 -23 0
-19 -20 0
-18 -19 0
-21 -24 0
-21 -25 0
-21 -22 0
-23 -24 0
-22 -24 0
-23 -22 0
-23 -25 0
-24 -25 0
-22 -25 0
-27 -30 0
-27 -29 0
-27 -26 0
-26 -28 0
-27 -28 0
-26 -29 0
-28 -30 0
-28 -29 0
-26 -30 0
-29 -30 0
-31 -33 0
-31 -35 0
-33 -32 0
-31 -32 0
-33 -34 0
-33 -35 0
-31 -34 0
-32 -35 0
-32 -34 0
-35 -34 0
-37 -39 0
-37 -36 0
-37 -38 0
-36 -39 0
-37 -40 0
-36 -38 0
-36 -40 0
-39 -38 0
-38 -40 0
-39 -40 0
-41 -42 0
-41 -44 0
-41 -43 0
-43 -42 0
-43 -45 0
-41 -45 0
-43 -44 0
-42 -44 0
-42 -45 0
-44 -45 0
-46 -49 0
-46 -48 0
-46 -50 0
-46 -47 0
-48 -47 0
-47 -50 0
-48 -49 0
-48 -50 0
-47 -49 0
-49 -50 0
-51 -53 0
-51 -54 0
-51 -52 0
-53 -54 0
-51 -55 0
-53 -52 0
-53 -55 0
-52 -54 0
-54 -55 0
-52 -55 0
-56 -59 0
-56 -57 0
-56 -60 0
-56 58 0
-57 58 0
-59 58 0
-57 -59 0
-59 -60 0
-57 -60 0
58 -60 0
-61 -63 0
-61 -65 0
-61 -62 0
-61 -64 0
-63 -62 0
-63 -65 0
-62 -65 0
-65 -64 0
-63 -64 0
-66 -68 0
-62 -64 0
-66 -67 0
-66 -69 0
-66 -70 0
-67 -70 0
-67 -68 0
-67 -69 0
-68 -69 0
-68 -70 0
-69 -70 0
-71 -74 0
-71 -72 0
-71 -73 0
-71 -75 0
-72 -73 0
-72 -74 0
-73 -74 0
-72 -75 0
-73 -75 0
-76 -78 0
-76 -77 0
-74 -75 0
-76 -80 0
-76 -79 0
-77 -79 0
-77 -80 0
-77 -78 0
-78 -80 0
-78 -79 0
-82 -84 0
-79 -80 0
-82 -81 0
-81 -83 0
-82 -83 0
-81 -85 0
-82 -85 0
-81 -84 0
-83 -84 0
-84 -85 0
-83 -85 0
-86 -90 0
-86 -87 0
-87 -88 0
-86 -88 0
-87 89 0
-86 89 0
-88 89 0
-88 -90 0
-87 -90 0
89 -90 0
-91 -92 0
-91 -93 0
-91 -94 0
-91 -95 0
-93 -92 0
-93 -94 0
-92 -94 0
-93 -95 0
-92 -95 0
-94 -95 0
-96 -99 0
-96 -97 0
-96 -98 0
-96 -100 0
-97 -98 0
-97 -99 0
-99 -98 0
-99 -100 0
-97 -100 0
-98 -100 0
-101 -103 0
-101 -102 0
-101 -104 0
-101 -105 0
-102 -103 0
-102 -105 0
-102 -104 0
-103 -105 0
-103 -104 0
-106 -108 0
-104 -105 0
-106 -107 0
-106 -110 0
-106 -109 0
-107 -110 0
-107 -108 0
-108 -109 0
-107 -109 0
-108 -110 0
-110 -109 0
-111 -114 0
-111 -113 0
-111 -112 0
-111 -116 0
-112 -116 0
-112 -114 0
-112 -113 0
-113 -114 0
-114 -116 0
-113 -116 0
-115 -117 0
-115 -120 0
-115 -119 0
-115 -118 0
-117 -118 0
-117 -119 0
-117 -120 0
-118 -120 0
-121 -122 0
-118 -119 0
-121 -123 0
-119 -120 0
-121 -124 0
-121 -125 0
-122 -123 0
-122 -125 0
-122 -124 0
-123 -124 0
-126 -127 0
-124 -125 0
-123 -125 0
-126 -130 0
-126 -128 0
-127 -128 0
-127 -129 0
-126 -129 0
-127 -130 0
-130 -129 0
-128 -130 0
-128 -129 0
-131 -132 0
-132 -133 0
-131 -133 0
-131 -134 0
-131 -135 0
-133 -134 0
-132 -134 0
-132 -135 0
-133 -135 0
-137 -136 0
-137 -138 0
-134 -135 0
-137 -139 0
-137 -140 0
-136 -139 0
-138 -139 0
-136 -138 0
-139 -140 0
-136 -140 0
-138 -140 0
-141 -143 0
-141 -142 0
-141 -145 0
-142 -143 0
-141 -144 0
-142 -144 0
-142 -145 0
-143 -145 0
-144 -145 0
-146 -147 0
-143 -144 0
-146 -148 0
-146 -150 0
-146 -149 0
-147 -149 0
-147 -150 0
-147 -148 0
-148 -149 0
-151 -152 0
-148 -150 0
-149 -150 0
-151 -153 0
-151 -155 0
-151 -154 0
-152 -154 0
-152 -153 0
-152 -155 0
-154 -153 0
-156 -157 0
-154 -155 0
-153 -155 0
-156 -160 0
-156 -158 0
-156 -159 0
-157 -159 0
-157 -158 0
-158 -159 0
-157 -160 0
-159 -160 0
-161 -162 0
-158 -160 0
-161 -163 0
-161 -165 0
-163 -162 0
-161 -164 0
-162 -165 0
-163 -165 0
-163 -164 0
-162 -164 0
-165 -164 0
-167 -168 0
-167 -170 0
-167 -166 0
-167 -169 0
-166 -168 0
-166 -170 0
-166 -169 0
-168 -169 0
-168 -170 0
-171 -172 0
-169 -170 0
-171 -174 0
-172 -174 0
-171 -173 0
-171 -175 0
-174 -173 0
-172 -173 0
-174 -175 0
-172 -175 0
-173 -175 0
-176 -178 0
-176 -179 0
-176 -177 0
-178 -179 0
-176 -180 0
-178 -177 0
-178 -180 0
-177 -179 0
-179 -180 0
-177 -180 0
162 176 3 73 7 0
6 90 146 160 106 0
50 12 117 173 62 0
134 100 18 65 167 0
69 33 13 55 40 0
108 64 22 39 2 0
43 26 35 165 147 0
41 153 177 47 24 0
37 16 44 142 91 0
17 29 57 49 75 0
51 155 19 88 105 0
52 10 122 -58 168 0
71 158 136 45 53 0
61 157 125 143 180 0
8 46 68 141 114 0
118 87 79 72 70 0
80 28 54 84 1 0
11 74 127 94 96 0
110 112 78 32 172 0
67 25 59 98 161 0
42 82 9 104 175 0
170 81 113 154 14 0
102 107 99 123 48 0
140 15 133 145 76 0
131 151 128 164 109 0
115 103 135 56 31 0
171 21 138 124 20 0
137 34 -89 85 97 0
93 139 63 149 111 0
150 129 169 144 5 0
77 163 38 156 101 0
66 152 4 121 95 0
126 30 120 159 116 0
179 60 174 130 86 0
132 166 27 92 23 0
119 178 83 36 148 0
67 112 3 14 54 0
23 12 175 73 88 0
6 38 55 75 96 0
25 142 18 47 82 0
59 33 122 74 48 0
110 116 22 140 151 0
37 121 150 13 27 0
60 26 100 20 177 0
155 170 7 49 29 0
51 158 95 30 21 0
41 146 114 120 102 0
45 169 143 -58 5 0
61 39 69 131 171 0
138 9 68 44 125 0
71 28 43 66 79 0
40 103 78 129 139 0
32 53 176 84 62 0
34 10 101 94 108 0
80 87 160 118 57 0
135 123 106 98 76 0
132 86 4 104 81 0
115 85 99 126 164 0
168 107 11 63 119 0
31 173 113 2 17 0
172 180 117 124 92 0
157 130 133 72 179 0
156 105 19 144 64 0
145 70 128 93 153 0
137 56 91 35 134 0
46 136 90 159 147 0
127 97 24 149 167 0
154 163 42 15 16 0
1 152 77 65 148 0
111 166 161 36 83 0
-89 178 141 162 8 0
50 165 174 109 52 0
